p tw 100 16501 2 
1 3 
1 4 
1 5 
1 6 
1 7 
1 8 
1 9 
1 10 
1 11 
1 12 
1 13 
1 14 
1 15 
1 16 
1 17 
1 18 
1 19 
1 20 
1 21 
1 22 
1 23 
1 29 
1 42 
1 50 
1 57 
1 60 
1 67 
1 74 
1 82 
1 90 
1 96 
1 100 
2 3 
2 4 
2 5 
2 6 
2 7 
2 8 
2 9 
2 10 
2 11 
2 12 
2 13 
2 20 
2 24 
2 25 
2 26 
2 27 
2 28 
2 29 
2 30 
2 31 
2 32 
2 33 
2 39 
2 45 
2 54 
2 61 
2 71 
2 76 
2 80 
2 81 
2 82 
2 83 
3 4 
3 5 
3 6 
3 7 
3 8 
3 9 
3 10 
3 11 
3 12 
3 14 
3 18 
3 24 
3 30 
3 34 
3 35 
3 36 
3 37 
3 38 
3 39 
3 40 
3 41 
3 42 
3 49 
3 51 
3 70 
3 76 
3 86 
3 89 
3 94 
3 95 
3 96 
4 5 
4 6 
4 7 
4 8 
4 9 
4 10 
4 11 
4 12 
4 15 
4 19 
4 25 
4 32 
4 34 
4 40 
4 43 
4 44 
4 45 
4 46 
4 47 
4 48 
4 49 
4 50 
4 57 
4 64 
4 69 
4 72 
4 80 
4 91 
4 93 
4 95 
5 6 
5 7 
5 8 
5 9 
5 10 
5 11 
5 12 
5 16 
5 23 
5 24 
5 33 
5 40 
5 43 
5 49 
5 51 
5 52 
5 53 
5 54 
5 55 
5 56 
5 57 
5 58 
5 59 
5 75 
5 78 
5 81 
5 87 
5 92 
5 100 
6 7 
6 8 
6 9 
6 10 
6 11 
6 12 
6 15 
6 17 
6 26 
6 28 
6 35 
6 41 
6 44 
6 51 
6 52 
6 59 
6 60 
6 61 
6 62 
6 63 
6 64 
6 73 
6 82 
6 87 
6 89 
6 91 
6 97 
6 98 
7 8 
7 9 
7 10 
7 11 
7 12 
7 13 
7 17 
7 31 
7 36 
7 39 
7 45 
7 48 
7 52 
7 55 
7 59 
7 65 
7 66 
7 67 
7 68 
7 69 
7 70 
7 73 
7 78 
7 88 
7 90 
7 93 
7 94 
8 9 
8 10 
8 11 
8 12 
8 18 
8 22 
8 27 
8 30 
8 35 
8 37 
8 44 
8 47 
8 53 
8 54 
8 65 
8 68 
8 71 
8 72 
8 73 
8 74 
8 75 
8 77 
8 85 
8 90 
8 91 
8 92 
9 10 
9 11 
9 12 
9 19 
9 21 
9 25 
9 28 
9 37 
9 38 
9 46 
9 53 
9 55 
9 60 
9 62 
9 66 
9 67 
9 76 
9 77 
9 78 
9 79 
9 80 
9 84 
9 85 
9 86 
9 87 
10 11 
10 12 
10 22 
10 23 
10 29 
10 32 
10 34 
10 41 
10 50 
10 56 
10 58 
10 62 
10 63 
10 66 
10 68 
10 71 
10 72 
10 79 
10 81 
10 84 
10 88 
10 89 
10 94 
10 99 
11 12 
11 16 
11 21 
11 26 
11 27 
11 36 
11 38 
11 47 
11 48 
11 56 
11 61 
11 70 
11 74 
11 79 
11 83 
11 84 
11 92 
11 93 
11 95 
11 97 
11 98 
11 99 
11 100 
12 14 
12 20 
12 31 
12 33 
12 42 
12 43 
12 46 
12 58 
12 63 
12 64 
12 65 
12 69 
12 75 
12 77 
12 83 
12 85 
12 86 
12 88 
12 96 
12 97 
12 98 
12 99 
13 14 
13 15 
13 16 
13 17 
13 18 
13 19 
13 20 
13 21 
13 22 
13 23 
13 24 
13 25 
13 26 
13 27 
13 28 
13 29 
13 30 
13 31 
13 32 
13 33 
13 36 
13 45 
13 52 
13 59 
13 65 
13 66 
13 67 
13 68 
13 69 
13 70 
14 15 
14 16 
14 17 
14 18 
14 19 
14 20 
14 21 
14 22 
14 23 
14 24 
14 33 
14 34 
14 35 
14 36 
14 37 
14 38 
14 39 
14 40 
14 41 
14 42 
14 46 
14 58 
14 64 
14 65 
14 83 
14 85 
14 88 
14 96 
14 98 
15 16 
15 17 
15 18 
15 19 
15 20 
15 21 
15 22 
15 23 
15 25 
15 28 
15 34 
15 41 
15 43 
15 44 
15 45 
15 46 
15 47 
15 48 
15 49 
15 50 
15 52 
15 73 
15 82 
15 87 
15 89 
15 91 
15 97 
15 98 
16 17 
16 18 
16 19 
16 20 
16 21 
16 22 
16 23 
16 24 
16 26 
16 36 
16 43 
16 48 
16 51 
16 52 
16 53 
16 54 
16 55 
16 56 
16 57 
16 58 
16 74 
16 79 
16 83 
16 84 
16 92 
16 95 
16 97 
17 18 
17 19 
17 20 
17 21 
17 22 
17 23 
17 26 
17 31 
17 35 
17 39 
17 44 
17 48 
17 51 
17 55 
17 59 
17 60 
17 61 
17 62 
17 63 
17 64 
17 73 
17 78 
17 88 
17 90 
17 93 
17 94 
18 19 
18 20 
18 21 
18 22 
18 23 
18 27 
18 30 
18 37 
18 44 
18 49 
18 51 
18 53 
18 65 
18 70 
18 71 
18 72 
18 73 
18 74 
18 75 
18 76 
18 86 
18 89 
18 94 
18 95 
18 96 
19 20 
19 21 
19 22 
19 23 
19 28 
19 32 
19 38 
19 40 
19 46 
19 53 
19 57 
19 60 
19 64 
19 66 
19 69 
19 72 
19 76 
19 77 
19 78 
19 79 
19 80 
19 91 
19 93 
19 95 
20 21 
20 22 
20 23 
20 31 
20 39 
20 42 
20 43 
20 45 
20 54 
20 61 
20 63 
20 69 
20 71 
20 75 
20 76 
20 77 
20 80 
20 81 
20 82 
20 83 
20 86 
20 97 
20 99 
21 22 
21 23 
21 25 
21 27 
21 37 
21 38 
21 47 
21 55 
21 56 
21 61 
21 62 
21 67 
21 70 
21 80 
21 84 
21 85 
21 86 
21 87 
21 93 
21 98 
21 99 
21 100 
22 23 
22 29 
22 30 
22 34 
22 35 
22 47 
22 54 
22 56 
22 63 
22 66 
22 68 
22 72 
22 77 
22 81 
22 84 
22 85 
22 88 
22 89 
22 90 
22 91 
22 92 
23 32 
23 33 
23 40 
23 41 
23 49 
23 50 
23 58 
23 59 
23 62 
23 68 
23 71 
23 75 
23 78 
23 79 
23 81 
23 87 
23 92 
23 94 
23 99 
23 100 
24 25 
24 26 
24 27 
24 28 
24 29 
24 30 
24 31 
24 32 
24 33 
24 34 
24 35 
24 36 
24 37 
24 38 
24 39 
24 40 
24 41 
24 42 
24 43 
24 51 
24 52 
24 53 
24 54 
24 55 
24 56 
24 57 
24 58 
25 26 
25 27 
25 28 
25 29 
25 30 
25 31 
25 32 
25 33 
25 34 
25 37 
25 43 
25 44 
25 45 
25 46 
25 47 
25 48 
25 49 
25 50 
25 55 
25 62 
25 67 
25 80 
25 84 
25 85 
25 86 
25 87 
26 27 
26 28 
26 29 
26 30 
26 31 
26 32 
26 33 
26 35 
26 36 
26 44 
26 48 
26 51 
26 59 
26 60 
26 61 
26 62 
26 63 
26 64 
26 74 
26 79 
26 83 
26 84 
26 92 
26 95 
26 97 
27 28 
27 29 
27 30 
27 31 
27 32 
27 33 
27 37 
27 38 
27 44 
27 47 
27 53 
27 56 
27 61 
27 65 
27 70 
27 71 
27 72 
27 73 
27 74 
27 75 
27 93 
27 98 
27 99 
27 100 
28 29 
28 30 
28 31 
28 32 
28 33 
28 38 
28 41 
28 46 
28 52 
28 53 
28 60 
28 66 
28 73 
28 76 
28 77 
28 78 
28 79 
28 82 
28 87 
28 89 
28 91 
28 97 
28 98 
29 30 
29 31 
29 32 
29 33 
29 34 
29 42 
29 50 
29 56 
29 57 
29 60 
29 63 
29 66 
29 67 
29 72 
29 74 
29 81 
29 82 
29 84 
29 88 
29 89 
29 90 
29 96 
29 100 
30 31 
30 32 
30 33 
30 35 
30 47 
30 49 
30 51 
30 54 
30 68 
30 70 
30 76 
30 77 
30 85 
30 86 
30 89 
30 90 
30 91 
30 92 
30 94 
30 95 
30 96 
31 32 
31 33 
31 39 
31 42 
31 43 
31 48 
31 55 
31 63 
31 69 
31 73 
31 75 
31 77 
31 78 
31 86 
31 88 
31 90 
31 93 
31 94 
31 97 
31 99 
32 33 
32 40 
32 41 
32 50 
32 57 
32 58 
32 62 
32 64 
32 68 
32 69 
32 71 
32 72 
32 79 
32 80 
32 91 
32 93 
32 94 
32 95 
32 99 
33 40 
33 46 
33 49 
33 58 
33 59 
33 64 
33 65 
33 75 
33 78 
33 81 
33 83 
33 85 
33 87 
33 88 
33 92 
33 96 
33 98 
33 100 
34 35 
34 36 
34 37 
34 38 
34 39 
34 40 
34 41 
34 42 
34 43 
34 44 
34 45 
34 46 
34 47 
34 48 
34 49 
34 50 
34 56 
34 63 
34 66 
34 72 
34 81 
34 84 
34 88 
34 89 
35 36 
35 37 
35 38 
35 39 
35 40 
35 41 
35 42 
35 44 
35 47 
35 51 
35 54 
35 59 
35 60 
35 61 
35 62 
35 63 
35 64 
35 68 
35 77 
35 85 
35 90 
35 91 
35 92 
36 37 
36 38 
36 39 
36 40 
36 41 
36 42 
36 45 
36 48 
36 52 
36 59 
36 65 
36 66 
36 67 
36 68 
36 69 
36 70 
36 74 
36 79 
36 83 
36 84 
36 92 
36 95 
36 97 
37 38 
37 39 
37 40 
37 41 
37 42 
37 44 
37 53 
37 55 
37 62 
37 65 
37 67 
37 71 
37 72 
37 73 
37 74 
37 75 
37 80 
37 84 
37 85 
37 86 
37 87 
38 39 
38 40 
38 41 
38 42 
38 46 
38 47 
38 53 
38 56 
38 60 
38 61 
38 66 
38 70 
38 76 
38 77 
38 78 
38 79 
38 93 
38 98 
38 99 
38 100 
39 40 
39 41 
39 42 
39 45 
39 48 
39 54 
39 55 
39 61 
39 71 
39 73 
39 76 
39 78 
39 80 
39 81 
39 82 
39 83 
39 88 
39 90 
39 93 
39 94 
40 41 
40 42 
40 49 
40 57 
40 59 
40 64 
40 69 
40 72 
40 75 
40 78 
40 80 
40 81 
40 87 
40 91 
40 92 
40 93 
40 95 
40 100 
41 42 
41 50 
41 52 
41 58 
41 62 
41 68 
41 71 
41 73 
41 79 
41 82 
41 87 
41 89 
41 91 
41 94 
41 97 
41 98 
41 99 
42 43 
42 50 
42 57 
42 60 
42 63 
42 67 
42 69 
42 74 
42 75 
42 77 
42 82 
42 86 
42 90 
42 96 
42 97 
42 99 
42 100 
43 44 
43 45 
43 46 
43 47 
43 48 
43 49 
43 50 
43 51 
43 52 
43 53 
43 54 
43 55 
43 56 
43 57 
43 58 
43 63 
43 69 
43 75 
43 77 
43 86 
43 97 
43 99 
44 45 
44 46 
44 47 
44 48 
44 49 
44 50 
44 51 
44 53 
44 59 
44 60 
44 61 
44 62 
44 63 
44 64 
44 65 
44 71 
44 72 
44 73 
44 74 
44 75 
45 46 
45 47 
45 48 
45 49 
45 50 
45 52 
45 54 
45 59 
45 61 
45 65 
45 66 
45 67 
45 68 
45 69 
45 70 
45 71 
45 76 
45 80 
45 81 
45 82 
45 83 
46 47 
46 48 
46 49 
46 50 
46 53 
46 58 
46 60 
46 64 
46 65 
46 66 
46 76 
46 77 
46 78 
46 79 
46 83 
46 85 
46 88 
46 96 
46 98 
47 48 
47 49 
47 50 
47 54 
47 56 
47 61 
47 68 
47 70 
47 77 
47 85 
47 90 
47 91 
47 92 
47 93 
47 98 
47 99 
47 100 
48 49 
48 50 
48 55 
48 73 
48 74 
48 78 
48 79 
48 83 
48 84 
48 88 
48 90 
48 92 
48 93 
48 94 
48 95 
48 97 
49 50 
49 51 
49 59 
49 70 
49 75 
49 76 
49 78 
49 81 
49 86 
49 87 
49 89 
49 92 
49 94 
49 95 
49 96 
49 100 
50 57 
50 58 
50 60 
50 62 
50 67 
50 68 
50 71 
50 74 
50 79 
50 82 
50 90 
50 94 
50 96 
50 99 
50 100 
51 52 
51 53 
51 54 
51 55 
51 56 
51 57 
51 58 
51 59 
51 60 
51 61 
51 62 
51 63 
51 64 
51 70 
51 76 
51 86 
51 89 
51 94 
51 95 
51 96 
52 53 
52 54 
52 55 
52 56 
52 57 
52 58 
52 59 
52 65 
52 66 
52 67 
52 68 
52 69 
52 70 
52 73 
52 82 
52 87 
52 89 
52 91 
52 97 
52 98 
53 54 
53 55 
53 56 
53 57 
53 58 
53 60 
53 65 
53 66 
53 71 
53 72 
53 73 
53 74 
53 75 
53 76 
53 77 
53 78 
53 79 
54 55 
54 56 
54 57 
54 58 
54 61 
54 68 
54 71 
54 76 
54 77 
54 80 
54 81 
54 82 
54 83 
54 85 
54 90 
54 91 
54 92 
55 56 
55 57 
55 58 
55 62 
55 67 
55 73 
55 78 
55 80 
55 84 
55 85 
55 86 
55 87 
55 88 
55 90 
55 93 
55 94 
56 57 
56 58 
56 61 
56 63 
56 66 
56 70 
56 72 
56 81 
56 84 
56 88 
56 89 
56 93 
56 98 
56 99 
56 100 
57 58 
57 60 
57 64 
57 67 
57 69 
57 72 
57 74 
57 80 
57 82 
57 90 
57 91 
57 93 
57 95 
57 96 
57 100 
58 62 
58 64 
58 65 
58 68 
58 71 
58 79 
58 83 
58 85 
58 88 
58 94 
58 96 
58 98 
58 99 
59 60 
59 61 
59 62 
59 63 
59 64 
59 65 
59 66 
59 67 
59 68 
59 69 
59 70 
59 75 
59 78 
59 81 
59 87 
59 92 
59 100 
60 61 
60 62 
60 63 
60 64 
60 66 
60 67 
60 74 
60 76 
60 77 
60 78 
60 79 
60 82 
60 90 
60 96 
60 100 
61 62 
61 63 
61 64 
61 70 
61 71 
61 76 
61 80 
61 81 
61 82 
61 83 
61 93 
61 98 
61 99 
61 100 
62 63 
62 64 
62 67 
62 68 
62 71 
62 79 
62 80 
62 84 
62 85 
62 86 
62 87 
62 94 
62 99 
63 64 
63 66 
63 69 
63 72 
63 75 
63 77 
63 81 
63 84 
63 86 
63 88 
63 89 
63 97 
63 99 
64 65 
64 69 
64 72 
64 80 
64 83 
64 85 
64 88 
64 91 
64 93 
64 95 
64 96 
64 98 
65 66 
65 67 
65 68 
65 69 
65 70 
65 71 
65 72 
65 73 
65 74 
65 75 
65 83 
65 85 
65 88 
65 96 
65 98 
66 67 
66 68 
66 69 
66 70 
66 72 
66 76 
66 77 
66 78 
66 79 
66 81 
66 84 
66 88 
66 89 
67 68 
67 69 
67 70 
67 74 
67 80 
67 82 
67 84 
67 85 
67 86 
67 87 
67 90 
67 96 
67 100 
68 69 
68 70 
68 71 
68 77 
68 79 
68 85 
68 90 
68 91 
68 92 
68 94 
68 99 
69 70 
69 72 
69 75 
69 77 
69 80 
69 86 
69 91 
69 93 
69 95 
69 97 
69 99 
70 76 
70 86 
70 89 
70 93 
70 94 
70 95 
70 96 
70 98 
70 99 
70 100 
71 72 
71 73 
71 74 
71 75 
71 76 
71 79 
71 80 
71 81 
71 82 
71 83 
71 94 
71 99 
72 73 
72 74 
72 75 
72 80 
72 81 
72 84 
72 88 
72 89 
72 91 
72 93 
72 95 
73 74 
73 75 
73 78 
73 82 
73 87 
73 88 
73 89 
73 90 
73 91 
73 93 
73 94 
73 97 
73 98 
74 75 
74 79 
74 82 
74 83 
74 84 
74 90 
74 92 
74 95 
74 96 
74 97 
74 100 
75 77 
75 78 
75 81 
75 86 
75 87 
75 92 
75 97 
75 99 
75 100 
76 77 
76 78 
76 79 
76 80 
76 81 
76 82 
76 83 
76 86 
76 89 
76 94 
76 95 
76 96 
77 78 
77 79 
77 85 
77 86 
77 90 
77 91 
77 92 
77 97 
77 99 
78 79 
78 81 
78 87 
78 88 
78 90 
78 92 
78 93 
78 94 
78 100 
79 83 
79 84 
79 92 
79 94 
79 95 
79 97 
79 99 
80 81 
80 82 
80 83 
80 84 
80 85 
80 86 
80 87 
80 91 
80 93 
80 95 
81 82 
81 83 
81 84 
81 87 
81 88 
81 89 
81 92 
81 100 
82 83 
82 87 
82 89 
82 90 
82 91 
82 96 
82 97 
82 98 
82 100 
83 84 
83 85 
83 88 
83 92 
83 95 
83 96 
83 97 
83 98 
84 85 
84 86 
84 87 
84 88 
84 89 
84 92 
84 95 
84 97 
85 86 
85 87 
85 88 
85 90 
85 91 
85 92 
85 96 
85 98 
86 87 
86 89 
86 94 
86 95 
86 96 
86 97 
86 99 
87 89 
87 91 
87 92 
87 97 
87 98 
87 100 
88 89 
88 90 
88 93 
88 94 
88 96 
88 98 
89 91 
89 94 
89 95 
89 96 
89 97 
89 98 
90 91 
90 92 
90 93 
90 94 
90 96 
90 100 
91 92 
91 93 
91 95 
91 97 
91 98 
92 95 
92 97 
92 100 
93 94 
93 95 
93 98 
93 99 
93 100 
94 95 
94 96 
94 99 
95 96 
95 97 
96 98 
96 100 
97 98 
97 99 
98 99 
98 100 
99 100 
